num_offers = 35;
num_halls = 10;
start=[48,5,64,8,36,23,34,24,41,43,59,9,28,24,32,21,21,44,70,62,28,53,32,25,23,5,43,50,31,13,52,12,33,57,31];
end=[88,95,73,80,46,78,76,77,79,96,82,98,89,93,43,93,63,83,75,79,94,59,74,43,28,74,74,51,59,100,84,90,72,88,65];
price=[3688,1540,205,7268,140,3809,3272,871,2469,3559,1754,8133,5426,5130,561,6702,538,1558,364,1559,1705,453,3319,1596,229,6517,1287,59,1132,7902,1209,7415,872,2088,1097];
requirement=[556,616,564,755,228,671,409,834,375,526,401,550,841,429,450,931,648,304,761,867,280,316,325,888,240,882,417,248,622,698,710,913,819,857,294];
capacity=[592,656,929,557,243,203,436,852,622,527];
